lab5/part1/divider/divider_synth/model/design_smt2.smt2
; SMT-LIBv2 description generated by Yosys 0.25+1 (git sha1 d3216593d, clang 10.0.0-4ubuntu1 -fPIC -Os)
; yosys-smt2-module yosys_divider
(declare-sort |yosys_divider_s| 0)
(declare-fun |yosys_divider_is| (|yosys_divider_s|) Bool)
(declare-fun |yosys_divider#0| (|yosys_divider_s|) (_ BitVec 1)) ; \b_i [0]
(declare-fun |yosys_divider#1| (|yosys_divider_s|) (_ BitVec 1)) ; \a_i [2]
(define-fun |yosys_divider#2| ((state |yosys_divider_s|)) (_ BitVec 1) (bvxor (|yosys_divider#0| state) (|yosys_divider#1| state))) ; \_029_
(define-fun |yosys_divider#3| ((state |yosys_divider_s|)) (_ BitVec 1) (bvnot (|yosys_divider#2| state))) ; \_030_
(define-fun |yosys_divider#4| ((state |yosys_divider_s|)) (_ BitVec 1) (bvnot (|yosys_divider#1| state))) ; \_046_
(declare-fun |yosys_divider#5| (|yosys_divider_s|) (_ BitVec 1)) ; \a_i [3]
(define-fun |yosys_divider#6| ((state |yosys_divider_s|)) (_ BitVec 1) (bvxor (|yosys_divider#0| state) (|yosys_divider#5| state))) ; \_010_
(define-fun |yosys_divider#7| ((state |yosys_divider_s|)) (_ BitVec 1) (bvnot (|yosys_divider#6| state))) ; \_011_
(define-fun |yosys_divider#8| ((state |yosys_divider_s|)) (_ BitVec 1) (bvnot (|yosys_divider#5| state))) ; \_009_
(declare-fun |yosys_divider#9| (|yosys_divider_s|) (_ BitVec 1)) ; \b_i [1]
(declare-fun |yosys_divider#10| (|yosys_divider_s|) (_ BitVec 1)) ; \b_i [2]
(define-fun |yosys_divider#11| ((state |yosys_divider_s|)) (_ BitVec 1) (bvor (|yosys_divider#9| state) (|yosys_divider#10| state))) ; \_015_
(declare-fun |yosys_divider#12| (|yosys_divider_s|) (_ BitVec 1)) ; \b_i [3]
(define-fun |yosys_divider#13| ((state |yosys_divider_s|)) (_ BitVec 1) (bvor (|yosys_divider#11| state) (|yosys_divider#12| state))) ; \_016_
(declare-fun |yosys_divider#14| (|yosys_divider_s|) (_ BitVec 1)) ; \a_i [1]
(declare-fun |yosys_divider#15| (|yosys_divider_s|) (_ BitVec 1)) ; \a_i [0]
(define-fun |yosys_divider#16| ((state |yosys_divider_s|)) (_ BitVec 1) (bvor (|yosys_divider#14| state) (|yosys_divider#15| state))) ; \_013_
(define-fun |yosys_divider#17| ((state |yosys_divider_s|)) (_ BitVec 1) (bvor (|yosys_divider#6| state) (|yosys_divider#1| state))) ; \_012_
(define-fun |yosys_divider#18| ((state |yosys_divider_s|)) (_ BitVec 1) (bvor (|yosys_divider#16| state) (|yosys_divider#17| state))) ; \_014_
(define-fun |yosys_divider#19| ((state |yosys_divider_s|)) (_ BitVec 1) (bvor (|yosys_divider#13| state) (|yosys_divider#18| state))) ; \_017_
(define-fun |yosys_divider#20| ((state |yosys_divider_s|)) (_ BitVec 1) (bvnot (|yosys_divider#12| state))) ; \_018_
(define-fun |yosys_divider#21| ((state |yosys_divider_s|)) (_ BitVec 1) (bvand (|yosys_divider#1| state) (|yosys_divider#7| state))) ; \_020_
(define-fun |yosys_divider#22| ((state |yosys_divider_s|)) (_ BitVec 1) (bvnot (|yosys_divider#0| state))) ; $not$divider.sv:200$23_Y
(define-fun |yosys_divider#23| ((state |yosys_divider_s|)) (_ BitVec 1) (bvand (|yosys_divider#5| state) (|yosys_divider#22| state))) ; \_019_
(define-fun |yosys_divider#24| ((state |yosys_divider_s|)) (_ BitVec 1) (bvor (|yosys_divider#21| state) (|yosys_divider#23| state))) ; \_021_
(define-fun |yosys_divider#25| ((state |yosys_divider_s|)) (_ BitVec 1) (bvnot (|yosys_divider#24| state))) ; $not$divider.sv:203$28_Y
(define-fun |yosys_divider#26| ((state |yosys_divider_s|)) (_ BitVec 1) (bvand (|yosys_divider#17| state) (|yosys_divider#25| state))) ; \_022_
(define-fun |yosys_divider#27| ((state |yosys_divider_s|)) (_ BitVec 1) (bvor (|yosys_divider#26| state) (|yosys_divider#11| state))) ; \_023_
(define-fun |yosys_divider#28| ((state |yosys_divider_s|)) (_ BitVec 1) (bvnot (|yosys_divider#27| state))) ; $not$divider.sv:205$31_Y
(define-fun |yosys_divider#29| ((state |yosys_divider_s|)) (_ BitVec 1) (bvand (|yosys_divider#20| state) (|yosys_divider#28| state))) ; \_024_
(define-fun |yosys_divider#30| ((state |yosys_divider_s|)) (_ BitVec 1) (bvnot (|yosys_divider#29| state))) ; $not$divider.sv:206$33_Y
(define-fun |yosys_divider#31| ((state |yosys_divider_s|)) (_ BitVec 1) (bvand (|yosys_divider#19| state) (|yosys_divider#30| state))) ; \_025_
(define-fun |yosys_divider#32| ((state |yosys_divider_s|)) (_ BitVec 1) (ite (= ((_ extract 0 0) (|yosys_divider#31| state)) #b1) (|yosys_divider#8| state) (|yosys_divider#7| state))) ; \_026_
(define-fun |yosys_divider#33| ((state |yosys_divider_s|)) (_ BitVec 1) (bvxor (|yosys_divider#32| state) (|yosys_divider#9| state))) ; \_028_
(define-fun |yosys_divider#34| ((state |yosys_divider_s|)) (_ BitVec 1) (bvand (|yosys_divider#3| state) (|yosys_divider#33| state))) ; $and$divider.sv:212$41_Y
(define-fun |yosys_divider#35| ((state |yosys_divider_s|)) (_ BitVec 1) (bvnot (|yosys_divider#34| state))) ; \_031_
(define-fun |yosys_divider#36| ((state |yosys_divider_s|)) (_ BitVec 1) (bvor (|yosys_divider#35| state) (|yosys_divider#16| state))) ; \_032_
(define-fun |yosys_divider#37| ((state |yosys_divider_s|)) (_ BitVec 1) (bvor (|yosys_divider#10| state) (|yosys_divider#12| state))) ; $not$divider.sv:214$44_Y
(define-fun |yosys_divider#38| ((state |yosys_divider_s|)) (_ BitVec 1) (bvor (|yosys_divider#36| state) (|yosys_divider#37| state))) ; \_033_
(define-fun |yosys_divider#39| ((state |yosys_divider_s|)) (_ BitVec 1) (bvnot (|yosys_divider#37| state))) ; \_027_
(define-fun |yosys_divider#40| ((state |yosys_divider_s|)) (_ BitVec 1) (bvor (|yosys_divider#0| state) (|yosys_divider#4| state))) ; \_036_
(define-fun |yosys_divider#41| ((state |yosys_divider_s|)) (_ BitVec 1) (bvnot (|yosys_divider#40| state))) ; $not$divider.sv:218$51_Y
(define-fun |yosys_divider#42| ((state |yosys_divider_s|)) (_ BitVec 1) (bvand (|yosys_divider#33| state) (|yosys_divider#41| state))) ; \_037_
(define-fun |yosys_divider#43| ((state |yosys_divider_s|)) (_ BitVec 1) (bvnot (|yosys_divider#9| state))) ; \_034_
(define-fun |yosys_divider#44| ((state |yosys_divider_s|)) (_ BitVec 1) (bvnot (|yosys_divider#32| state))) ; $not$divider.sv:216$47_Y
(define-fun |yosys_divider#45| ((state |yosys_divider_s|)) (_ BitVec 1) (bvand (|yosys_divider#43| state) (|yosys_divider#44| state))) ; \_035_
(define-fun |yosys_divider#46| ((state |yosys_divider_s|)) (_ BitVec 1) (bvor (|yosys_divider#42| state) (|yosys_divider#45| state))) ; \_038_
(define-fun |yosys_divider#47| ((state |yosys_divider_s|)) (_ BitVec 1) (bvnot (|yosys_divider#46| state))) ; $not$divider.sv:220$54_Y
(define-fun |yosys_divider#48| ((state |yosys_divider_s|)) (_ BitVec 1) (bvand (|yosys_divider#35| state) (|yosys_divider#47| state))) ; \_039_
(define-fun |yosys_divider#49| ((state |yosys_divider_s|)) (_ BitVec 1) (bvnot (|yosys_divider#48| state))) ; $not$divider.sv:221$56_Y
(define-fun |yosys_divider#50| ((state |yosys_divider_s|)) (_ BitVec 1) (bvand (|yosys_divider#39| state) (|yosys_divider#49| state))) ; \_040_
(define-fun |yosys_divider#51| ((state |yosys_divider_s|)) (_ BitVec 1) (bvnot (|yosys_divider#50| state))) ; $not$divider.sv:222$58_Y
(define-fun |yosys_divider#52| ((state |yosys_divider_s|)) (_ BitVec 1) (bvand (|yosys_divider#38| state) (|yosys_divider#51| state))) ; \_041_
(define-fun |yosys_divider#53| ((state |yosys_divider_s|)) (_ BitVec 1) (ite (= ((_ extract 0 0) (|yosys_divider#52| state)) #b1) (|yosys_divider#4| state) (|yosys_divider#3| state))) ; \_047_
(define-fun |yosys_divider#54| ((state |yosys_divider_s|)) (_ BitVec 1) (bvor (|yosys_divider#53| state) (|yosys_divider#9| state))) ; \_055_
(define-fun |yosys_divider#55| ((state |yosys_divider_s|)) (_ BitVec 1) (bvnot (|yosys_divider#14| state))) ; \_072_
(define-fun |yosys_divider#56| ((state |yosys_divider_s|)) (_ BitVec 1) (bvand (|yosys_divider#0| state) (|yosys_divider#55| state))) ; \_058_
(define-fun |yosys_divider#57| ((state |yosys_divider_s|)) (_ BitVec 1) (bvxor (|yosys_divider#53| state) (|yosys_divider#43| state))) ; \_048_
(define-fun |yosys_divider#58| ((state |yosys_divider_s|)) (_ BitVec 1) (bvor (|yosys_divider#56| state) (|yosys_divider#57| state))) ; $not$divider.sv:245$94_Y
(define-fun |yosys_divider#59| ((state |yosys_divider_s|)) (_ BitVec 1) (bvand (|yosys_divider#54| state) (|yosys_divider#58| state))) ; \_064_
(define-fun |yosys_divider#60| ((state |yosys_divider_s|)) (_ BitVec 1) (bvand (|yosys_divider#0| state) (|yosys_divider#4| state))) ; \_042_
(define-fun |yosys_divider#61| ((state |yosys_divider_s|)) (_ BitVec 1) (bvxor (|yosys_divider#60| state) (|yosys_divider#33| state))) ; \_043_
(define-fun |yosys_divider#62| ((state |yosys_divider_s|)) (_ BitVec 1) (ite (= ((_ extract 0 0) (|yosys_divider#52| state)) #b1) (|yosys_divider#32| state) (|yosys_divider#61| state))) ; \_044_
(define-fun |yosys_divider#63| ((state |yosys_divider_s|)) (_ BitVec 1) (bvxor (|yosys_divider#62| state) (|yosys_divider#10| state))) ; \_045_
(define-fun |yosys_divider#64| ((state |yosys_divider_s|)) (_ BitVec 1) (bvxor (|yosys_divider#59| state) (|yosys_divider#63| state))) ; \_065_
(define-fun |yosys_divider#65| ((state |yosys_divider_s|)) (_ BitVec 1) (bvxor (|yosys_divider#0| state) (|yosys_divider#14| state))) ; \_050_
(define-fun |yosys_divider#66| ((state |yosys_divider_s|)) (_ BitVec 1) (bvor (|yosys_divider#65| state) (|yosys_divider#15| state))) ; $or$divider.sv:232$71_Y
(define-fun |yosys_divider#67| ((state |yosys_divider_s|)) (_ BitVec 1) (bvnot (|yosys_divider#66| state))) ; \_051_
(define-fun |yosys_divider#68| ((state |yosys_divider_s|)) (_ BitVec 1) (bvnot (|yosys_divider#57| state))) ; $not$divider.sv:230$68_Y
(define-fun |yosys_divider#69| ((state |yosys_divider_s|)) (_ BitVec 1) (bvand (|yosys_divider#63| state) (|yosys_divider#68| state))) ; \_049_
(define-fun |yosys_divider#70| ((state |yosys_divider_s|)) (_ BitVec 1) (bvand (|yosys_divider#67| state) (|yosys_divider#69| state))) ; $and$divider.sv:233$73_Y
(define-fun |yosys_divider#71| ((state |yosys_divider_s|)) (_ BitVec 1) (bvnot (|yosys_divider#70| state))) ; \_052_
(define-fun |yosys_divider#72| ((state |yosys_divider_s|)) (_ BitVec 1) (bvor (|yosys_divider#71| state) (|yosys_divider#12| state))) ; \_053_
(define-fun |yosys_divider#73| ((state |yosys_divider_s|)) (_ BitVec 1) (bvor (|yosys_divider#62| state) (|yosys_divider#10| state))) ; \_054_
(define-fun |yosys_divider#74| ((state |yosys_divider_s|)) (_ BitVec 1) (bvnot (|yosys_divider#54| state))) ; $not$divider.sv:237$78_Y
(define-fun |yosys_divider#75| ((state |yosys_divider_s|)) (_ BitVec 1) (bvand (|yosys_divider#63| state) (|yosys_divider#74| state))) ; \_056_
(define-fun |yosys_divider#76| ((state |yosys_divider_s|)) (_ BitVec 1) (bvnot (|yosys_divider#75| state))) ; $not$divider.sv:238$80_Y
(define-fun |yosys_divider#77| ((state |yosys_divider_s|)) (_ BitVec 1) (bvand (|yosys_divider#73| state) (|yosys_divider#76| state))) ; \_057_
(define-fun |yosys_divider#78| ((state |yosys_divider_s|)) (_ BitVec 1) (bvnot (|yosys_divider#56| state))) ; $not$divider.sv:240$84_Y
(define-fun |yosys_divider#79| ((state |yosys_divider_s|)) (_ BitVec 1) (bvand (|yosys_divider#69| state) (|yosys_divider#78| state))) ; \_059_
(define-fun |yosys_divider#80| ((state |yosys_divider_s|)) (_ BitVec 1) (bvnot (|yosys_divider#79| state))) ; $not$divider.sv:241$86_Y
(define-fun |yosys_divider#81| ((state |yosys_divider_s|)) (_ BitVec 1) (bvand (|yosys_divider#77| state) (|yosys_divider#80| state))) ; \_060_
(define-fun |yosys_divider#82| ((state |yosys_divider_s|)) (_ BitVec 1) (bvnot (|yosys_divider#81| state))) ; $not$divider.sv:242$88_Y
(define-fun |yosys_divider#83| ((state |yosys_divider_s|)) (_ BitVec 1) (bvand (|yosys_divider#20| state) (|yosys_divider#82| state))) ; \_061_
(define-fun |yosys_divider#84| ((state |yosys_divider_s|)) (_ BitVec 1) (bvnot (|yosys_divider#83| state))) ; $not$divider.sv:243$90_Y
(define-fun |yosys_divider#85| ((state |yosys_divider_s|)) (_ BitVec 1) (bvand (|yosys_divider#72| state) (|yosys_divider#84| state))) ; \_062_
(define-fun |yosys_divider#86| ((state |yosys_divider_s|)) (_ BitVec 1) (ite (= ((_ extract 0 0) (|yosys_divider#85| state)) #b1) (|yosys_divider#62| state) (|yosys_divider#64| state))) ; \_066_
(define-fun |yosys_divider#87| ((state |yosys_divider_s|)) (_ BitVec 1) (bvxor (|yosys_divider#86| state) (|yosys_divider#12| state))) ; \_067_
(define-fun |yosys_divider#88| ((state |yosys_divider_s|)) (_ BitVec 1) (bvxor (|yosys_divider#56| state) (|yosys_divider#57| state))) ; $xor$divider.sv:249$99_Y
(define-fun |yosys_divider#89| ((state |yosys_divider_s|)) (_ BitVec 1) (bvnot (|yosys_divider#88| state))) ; \_068_
(define-fun |yosys_divider#90| ((state |yosys_divider_s|)) (_ BitVec 1) (ite (= ((_ extract 0 0) (|yosys_divider#85| state)) #b1) (|yosys_divider#53| state) (|yosys_divider#89| state))) ; \_069_
(define-fun |yosys_divider#91| ((state |yosys_divider_s|)) (_ BitVec 1) (bvxor (|yosys_divider#90| state) (|yosys_divider#10| state))) ; $not$divider.sv:252$104_Y
(define-fun |yosys_divider#92| ((state |yosys_divider_s|)) (_ BitVec 1) (bvand (|yosys_divider#87| state) (|yosys_divider#91| state))) ; \_071_
(define-fun |yosys_divider#93| ((state |yosys_divider_s|)) (_ BitVec 1) (bvnot (|yosys_divider#65| state))) ; \_073_
(define-fun |yosys_divider#94| ((state |yosys_divider_s|)) (_ BitVec 1) (ite (= ((_ extract 0 0) (|yosys_divider#85| state)) #b1) (|yosys_divider#55| state) (|yosys_divider#93| state))) ; \_074_
(define-fun |yosys_divider#95| ((state |yosys_divider_s|)) (_ BitVec 1) (bvor (|yosys_divider#94| state) (|yosys_divider#9| state))) ; \_083_
(define-fun |yosys_divider#96| ((state |yosys_divider_s|)) (_ BitVec 1) (bvnot (|yosys_divider#15| state))) ; $not$divider.sv:265$121_Y
(define-fun |yosys_divider#97| ((state |yosys_divider_s|)) (_ BitVec 1) (bvand (|yosys_divider#0| state) (|yosys_divider#96| state))) ; \_084_
(define-fun |yosys_divider#98| ((state |yosys_divider_s|)) (_ BitVec 1) (bvxor (|yosys_divider#94| state) (|yosys_divider#43| state))) ; \_075_
(define-fun |yosys_divider#99| ((state |yosys_divider_s|)) (_ BitVec 1) (bvor (|yosys_divider#97| state) (|yosys_divider#98| state))) ; $not$divider.sv:267$125_Y
(define-fun |yosys_divider#100| ((state |yosys_divider_s|)) (_ BitVec 1) (bvand (|yosys_divider#95| state) (|yosys_divider#99| state))) ; \_086_
(define-fun |yosys_divider#101| ((state |yosys_divider_s|)) (_ BitVec 1) (bvnot (|yosys_divider#100| state))) ; $not$divider.sv:268$127_Y
(define-fun |yosys_divider#102| ((state |yosys_divider_s|)) (_ BitVec 1) (bvand (|yosys_divider#92| state) (|yosys_divider#101| state))) ; \_087_
(define-fun |yosys_divider#103| ((state |yosys_divider_s|)) (_ BitVec 1) (bvor (|yosys_divider#90| state) (|yosys_divider#10| state))) ; \_080_
(define-fun |yosys_divider#104| ((state |yosys_divider_s|)) (_ BitVec 1) (bvnot (|yosys_divider#103| state))) ; $not$divider.sv:262$117_Y
(define-fun |yosys_divider#105| ((state |yosys_divider_s|)) (_ BitVec 1) (bvand (|yosys_divider#87| state) (|yosys_divider#104| state))) ; \_081_
(define-fun |yosys_divider#106| ((state |yosys_divider_s|)) (_ BitVec 1) (bvnot (|yosys_divider#86| state))) ; \_005_
(define-fun |yosys_divider#107| ((state |yosys_divider_s|)) (_ BitVec 1) (bvand (|yosys_divider#20| state) (|yosys_divider#106| state))) ; \_079_
(define-fun |yosys_divider#108| ((state |yosys_divider_s|)) (_ BitVec 1) (bvor (|yosys_divider#105| state) (|yosys_divider#107| state))) ; \_082_
(define-fun |yosys_divider#109| ((state |yosys_divider_s|)) (_ BitVec 1) (bvor (|yosys_divider#102| state) (|yosys_divider#108| state))) ; \_088_
(define-fun |yosys_divider#110| ((state |yosys_divider_s|)) (_ BitVec 1) (bvxor (|yosys_divider#0| state) (|yosys_divider#15| state))) ; \_076_
(define-fun |yosys_divider#111| ((state |yosys_divider_s|)) (_ BitVec 1) (bvor (|yosys_divider#110| state) (|yosys_divider#98| state))) ; \_077_
(define-fun |yosys_divider#112| ((state |yosys_divider_s|)) (_ BitVec 1) (bvnot (|yosys_divider#92| state))) ; $not$divider.sv:259$112_Y
(define-fun |yosys_divider#113| ((state |yosys_divider_s|)) (_ BitVec 1) (bvor (|yosys_divider#111| state) (|yosys_divider#112| state))) ; \_078_
(define-fun |yosys_divider#114| ((state |yosys_divider_s|)) (_ BitVec 1) (bvnot (|yosys_divider#113| state))) ; $not$divider.sv:270$130_Y
(define-fun |yosys_divider#115| ((state |yosys_divider_s|)) (_ BitVec 1) (bvor (|yosys_divider#109| state) (|yosys_divider#114| state))) ; \rem_o [0]
(define-fun |yosys_divider#116| ((state |yosys_divider_s|)) (_ BitVec 1) (bvnot (|yosys_divider#85| state))) ; \rem_o [1]
(define-fun |yosys_divider#117| ((state |yosys_divider_s|)) (_ BitVec 1) (bvnot (|yosys_divider#52| state))) ; \rem_o [2]
(define-fun |yosys_divider#118| ((state |yosys_divider_s|)) (_ BitVec 1) (bvnot (|yosys_divider#31| state))) ; \rem_o [3]
; yosys-smt2-output rem_o 4
; yosys-smt2-wire rem_o 4
(define-fun |yosys_divider_n rem_o| ((state |yosys_divider_s|)) (_ BitVec 4) (concat (|yosys_divider#118| state) (concat (|yosys_divider#117| state) (concat (|yosys_divider#116| state) (|yosys_divider#115| state)))))
(define-fun |yosys_divider#119| ((state |yosys_divider_s|)) (_ BitVec 1) (bvnot (|yosys_divider#109| state))) ; $not$divider.sv:275$136_Y
(define-fun |yosys_divider#120| ((state |yosys_divider_s|)) (_ BitVec 1) (bvand (|yosys_divider#113| state) (|yosys_divider#119| state))) ; \_001_
(define-fun |yosys_divider#121| ((state |yosys_divider_s|)) (_ BitVec 1) (ite (= ((_ extract 0 0) (|yosys_divider#120| state)) #b1) (|yosys_divider#15| state) (|yosys_divider#110| state))) ; \quot_o [0]
(define-fun |yosys_divider#122| ((state |yosys_divider_s|)) (_ BitVec 1) (bvxor (|yosys_divider#97| state) (|yosys_divider#98| state))) ; \_002_
(define-fun |yosys_divider#123| ((state |yosys_divider_s|)) (_ BitVec 1) (bvnot (|yosys_divider#94| state))) ; \_000_
(define-fun |yosys_divider#124| ((state |yosys_divider_s|)) (_ BitVec 1) (ite (= ((_ extract 0 0) (|yosys_divider#120| state)) #b1) (|yosys_divider#123| state) (|yosys_divider#122| state))) ; \quot_o [1]
(define-fun |yosys_divider#125| ((state |yosys_divider_s|)) (_ BitVec 1) (bvnot (|yosys_divider#91| state))) ; \_070_
(define-fun |yosys_divider#126| ((state |yosys_divider_s|)) (_ BitVec 1) (bvxor (|yosys_divider#100| state) (|yosys_divider#125| state))) ; \_004_
(define-fun |yosys_divider#127| ((state |yosys_divider_s|)) (_ BitVec 1) (bvnot (|yosys_divider#90| state))) ; \_003_
(define-fun |yosys_divider#128| ((state |yosys_divider_s|)) (_ BitVec 1) (ite (= ((_ extract 0 0) (|yosys_divider#120| state)) #b1) (|yosys_divider#127| state) (|yosys_divider#126| state))) ; \quot_o [2]
(define-fun |yosys_divider#129| ((state |yosys_divider_s|)) (_ BitVec 1) (bvor (|yosys_divider#100| state) (|yosys_divider#125| state))) ; $or$divider.sv:283$145_Y
(define-fun |yosys_divider#130| ((state |yosys_divider_s|)) (_ BitVec 1) (bvnot (|yosys_divider#129| state))) ; \_006_
(define-fun |yosys_divider#131| ((state |yosys_divider_s|)) (_ BitVec 1) (bvor (|yosys_divider#130| state) (|yosys_divider#104| state))) ; \_007_
(define-fun |yosys_divider#132| ((state |yosys_divider_s|)) (_ BitVec 1) (bvxor (|yosys_divider#131| state) (|yosys_divider#87| state))) ; \_008_
(define-fun |yosys_divider#133| ((state |yosys_divider_s|)) (_ BitVec 1) (ite (= ((_ extract 0 0) (|yosys_divider#120| state)) #b1) (|yosys_divider#106| state) (|yosys_divider#132| state))) ; \quot_o [3]
; yosys-smt2-output quot_o 4
; yosys-smt2-wire quot_o 4
(define-fun |yosys_divider_n quot_o| ((state |yosys_divider_s|)) (_ BitVec 4) (concat (|yosys_divider#133| state) (concat (|yosys_divider#128| state) (concat (|yosys_divider#124| state) (|yosys_divider#121| state)))))
; yosys-smt2-input b_i 4
; yosys-smt2-wire b_i 4
; yosys-smt2-witness {"offset": 0, "path": ["\\b_i"], "smtname": "b_i", "smtoffset": 0, "type": "input", "width": 4}
(define-fun |yosys_divider_n b_i| ((state |yosys_divider_s|)) (_ BitVec 4) (concat (|yosys_divider#12| state) (concat (|yosys_divider#10| state) (concat (|yosys_divider#9| state) (|yosys_divider#0| state)))))
; yosys-smt2-input a_i 4
; yosys-smt2-wire a_i 4
; yosys-smt2-witness {"offset": 0, "path": ["\\a_i"], "smtname": "a_i", "smtoffset": 0, "type": "input", "width": 4}
(define-fun |yosys_divider_n a_i| ((state |yosys_divider_s|)) (_ BitVec 4) (concat (|yosys_divider#5| state) (concat (|yosys_divider#1| state) (concat (|yosys_divider#14| state) (|yosys_divider#15| state)))))
; yosys-smt2-wire _088_ 1
(define-fun |yosys_divider_n _088_| ((state |yosys_divider_s|)) Bool (= ((_ extract 0 0) (|yosys_divider#109| state)) #b1))
; yosys-smt2-wire _087_ 1
(define-fun |yosys_divider_n _087_| ((state |yosys_divider_s|)) Bool (= ((_ extract 0 0) (|yosys_divider#102| state)) #b1))
; yosys-smt2-wire _086_ 1
(define-fun |yosys_divider_n _086_| ((state |yosys_divider_s|)) Bool (= ((_ extract 0 0) (|yosys_divider#100| state)) #b1))
; yosys-smt2-wire _084_ 1
(define-fun |yosys_divider_n _084_| ((state |yosys_divider_s|)) Bool (= ((_ extract 0 0) (|yosys_divider#97| state)) #b1))
; yosys-smt2-wire _083_ 1
(define-fun |yosys_divider_n _083_| ((state |yosys_divider_s|)) Bool (= ((_ extract 0 0) (|yosys_divider#95| state)) #b1))
; yosys-smt2-wire _082_ 1
(define-fun |yosys_divider_n _082_| ((state |yosys_divider_s|)) Bool (= ((_ extract 0 0) (|yosys_divider#108| state)) #b1))
; yosys-smt2-wire _081_ 1
(define-fun |yosys_divider_n _081_| ((state |yosys_divider_s|)) Bool (= ((_ extract 0 0) (|yosys_divider#105| state)) #b1))
; yosys-smt2-wire _080_ 1
(define-fun |yosys_divider_n _080_| ((state |yosys_divider_s|)) Bool (= ((_ extract 0 0) (|yosys_divider#103| state)) #b1))
; yosys-smt2-wire _079_ 1
(define-fun |yosys_divider_n _079_| ((state |yosys_divider_s|)) Bool (= ((_ extract 0 0) (|yosys_divider#107| state)) #b1))
; yosys-smt2-wire _078_ 1
(define-fun |yosys_divider_n _078_| ((state |yosys_divider_s|)) Bool (= ((_ extract 0 0) (|yosys_divider#113| state)) #b1))
; yosys-smt2-wire _077_ 1
(define-fun |yosys_divider_n _077_| ((state |yosys_divider_s|)) Bool (= ((_ extract 0 0) (|yosys_divider#111| state)) #b1))
; yosys-smt2-wire _076_ 1
(define-fun |yosys_divider_n _076_| ((state |yosys_divider_s|)) Bool (= ((_ extract 0 0) (|yosys_divider#110| state)) #b1))
; yosys-smt2-wire _075_ 1
(define-fun |yosys_divider_n _075_| ((state |yosys_divider_s|)) Bool (= ((_ extract 0 0) (|yosys_divider#98| state)) #b1))
; yosys-smt2-wire _074_ 1
(define-fun |yosys_divider_n _074_| ((state |yosys_divider_s|)) Bool (= ((_ extract 0 0) (|yosys_divider#94| state)) #b1))
; yosys-smt2-wire _073_ 1
(define-fun |yosys_divider_n _073_| ((state |yosys_divider_s|)) Bool (= ((_ extract 0 0) (|yosys_divider#93| state)) #b1))
; yosys-smt2-wire _072_ 1
(define-fun |yosys_divider_n _072_| ((state |yosys_divider_s|)) Bool (= ((_ extract 0 0) (|yosys_divider#55| state)) #b1))
; yosys-smt2-wire _071_ 1
(define-fun |yosys_divider_n _071_| ((state |yosys_divider_s|)) Bool (= ((_ extract 0 0) (|yosys_divider#92| state)) #b1))
; yosys-smt2-wire _070_ 1
(define-fun |yosys_divider_n _070_| ((state |yosys_divider_s|)) Bool (= ((_ extract 0 0) (|yosys_divider#125| state)) #b1))
; yosys-smt2-wire _069_ 1
(define-fun |yosys_divider_n _069_| ((state |yosys_divider_s|)) Bool (= ((_ extract 0 0) (|yosys_divider#90| state)) #b1))
; yosys-smt2-wire _068_ 1
(define-fun |yosys_divider_n _068_| ((state |yosys_divider_s|)) Bool (= ((_ extract 0 0) (|yosys_divider#89| state)) #b1))
; yosys-smt2-wire _067_ 1
(define-fun |yosys_divider_n _067_| ((state |yosys_divider_s|)) Bool (= ((_ extract 0 0) (|yosys_divider#87| state)) #b1))
; yosys-smt2-wire _066_ 1
(define-fun |yosys_divider_n _066_| ((state |yosys_divider_s|)) Bool (= ((_ extract 0 0) (|yosys_divider#86| state)) #b1))
; yosys-smt2-wire _065_ 1
(define-fun |yosys_divider_n _065_| ((state |yosys_divider_s|)) Bool (= ((_ extract 0 0) (|yosys_divider#64| state)) #b1))
; yosys-smt2-wire _064_ 1
(define-fun |yosys_divider_n _064_| ((state |yosys_divider_s|)) Bool (= ((_ extract 0 0) (|yosys_divider#59| state)) #b1))
; yosys-smt2-wire _062_ 1
(define-fun |yosys_divider_n _062_| ((state |yosys_divider_s|)) Bool (= ((_ extract 0 0) (|yosys_divider#85| state)) #b1))
; yosys-smt2-wire _061_ 1
(define-fun |yosys_divider_n _061_| ((state |yosys_divider_s|)) Bool (= ((_ extract 0 0) (|yosys_divider#83| state)) #b1))
; yosys-smt2-wire _060_ 1
(define-fun |yosys_divider_n _060_| ((state |yosys_divider_s|)) Bool (= ((_ extract 0 0) (|yosys_divider#81| state)) #b1))
; yosys-smt2-wire _059_ 1
(define-fun |yosys_divider_n _059_| ((state |yosys_divider_s|)) Bool (= ((_ extract 0 0) (|yosys_divider#79| state)) #b1))
; yosys-smt2-wire _058_ 1
(define-fun |yosys_divider_n _058_| ((state |yosys_divider_s|)) Bool (= ((_ extract 0 0) (|yosys_divider#56| state)) #b1))
; yosys-smt2-wire _057_ 1
(define-fun |yosys_divider_n _057_| ((state |yosys_divider_s|)) Bool (= ((_ extract 0 0) (|yosys_divider#77| state)) #b1))
; yosys-smt2-wire _056_ 1
(define-fun |yosys_divider_n _056_| ((state |yosys_divider_s|)) Bool (= ((_ extract 0 0) (|yosys_divider#75| state)) #b1))
; yosys-smt2-wire _055_ 1
(define-fun |yosys_divider_n _055_| ((state |yosys_divider_s|)) Bool (= ((_ extract 0 0) (|yosys_divider#54| state)) #b1))
; yosys-smt2-wire _054_ 1
(define-fun |yosys_divider_n _054_| ((state |yosys_divider_s|)) Bool (= ((_ extract 0 0) (|yosys_divider#73| state)) #b1))
; yosys-smt2-wire _053_ 1
(define-fun |yosys_divider_n _053_| ((state |yosys_divider_s|)) Bool (= ((_ extract 0 0) (|yosys_divider#72| state)) #b1))
; yosys-smt2-wire _052_ 1
(define-fun |yosys_divider_n _052_| ((state |yosys_divider_s|)) Bool (= ((_ extract 0 0) (|yosys_divider#71| state)) #b1))
; yosys-smt2-wire _051_ 1
(define-fun |yosys_divider_n _051_| ((state |yosys_divider_s|)) Bool (= ((_ extract 0 0) (|yosys_divider#67| state)) #b1))
; yosys-smt2-wire _050_ 1
(define-fun |yosys_divider_n _050_| ((state |yosys_divider_s|)) Bool (= ((_ extract 0 0) (|yosys_divider#65| state)) #b1))
; yosys-smt2-wire _049_ 1
(define-fun |yosys_divider_n _049_| ((state |yosys_divider_s|)) Bool (= ((_ extract 0 0) (|yosys_divider#69| state)) #b1))
; yosys-smt2-wire _048_ 1
(define-fun |yosys_divider_n _048_| ((state |yosys_divider_s|)) Bool (= ((_ extract 0 0) (|yosys_divider#57| state)) #b1))
; yosys-smt2-wire _047_ 1
(define-fun |yosys_divider_n _047_| ((state |yosys_divider_s|)) Bool (= ((_ extract 0 0) (|yosys_divider#53| state)) #b1))
; yosys-smt2-wire _046_ 1
(define-fun |yosys_divider_n _046_| ((state |yosys_divider_s|)) Bool (= ((_ extract 0 0) (|yosys_divider#4| state)) #b1))
; yosys-smt2-wire _045_ 1
(define-fun |yosys_divider_n _045_| ((state |yosys_divider_s|)) Bool (= ((_ extract 0 0) (|yosys_divider#63| state)) #b1))
; yosys-smt2-wire _044_ 1
(define-fun |yosys_divider_n _044_| ((state |yosys_divider_s|)) Bool (= ((_ extract 0 0) (|yosys_divider#62| state)) #b1))
; yosys-smt2-wire _043_ 1
(define-fun |yosys_divider_n _043_| ((state |yosys_divider_s|)) Bool (= ((_ extract 0 0) (|yosys_divider#61| state)) #b1))
; yosys-smt2-wire _042_ 1
(define-fun |yosys_divider_n _042_| ((state |yosys_divider_s|)) Bool (= ((_ extract 0 0) (|yosys_divider#60| state)) #b1))
; yosys-smt2-wire _041_ 1
(define-fun |yosys_divider_n _041_| ((state |yosys_divider_s|)) Bool (= ((_ extract 0 0) (|yosys_divider#52| state)) #b1))
; yosys-smt2-wire _040_ 1
(define-fun |yosys_divider_n _040_| ((state |yosys_divider_s|)) Bool (= ((_ extract 0 0) (|yosys_divider#50| state)) #b1))
; yosys-smt2-wire _039_ 1
(define-fun |yosys_divider_n _039_| ((state |yosys_divider_s|)) Bool (= ((_ extract 0 0) (|yosys_divider#48| state)) #b1))
; yosys-smt2-wire _038_ 1
(define-fun |yosys_divider_n _038_| ((state |yosys_divider_s|)) Bool (= ((_ extract 0 0) (|yosys_divider#46| state)) #b1))
; yosys-smt2-wire _037_ 1
(define-fun |yosys_divider_n _037_| ((state |yosys_divider_s|)) Bool (= ((_ extract 0 0) (|yosys_divider#42| state)) #b1))
; yosys-smt2-wire _036_ 1
(define-fun |yosys_divider_n _036_| ((state |yosys_divider_s|)) Bool (= ((_ extract 0 0) (|yosys_divider#40| state)) #b1))
; yosys-smt2-wire _035_ 1
(define-fun |yosys_divider_n _035_| ((state |yosys_divider_s|)) Bool (= ((_ extract 0 0) (|yosys_divider#45| state)) #b1))
; yosys-smt2-wire _034_ 1
(define-fun |yosys_divider_n _034_| ((state |yosys_divider_s|)) Bool (= ((_ extract 0 0) (|yosys_divider#43| state)) #b1))
; yosys-smt2-wire _033_ 1
(define-fun |yosys_divider_n _033_| ((state |yosys_divider_s|)) Bool (= ((_ extract 0 0) (|yosys_divider#38| state)) #b1))
; yosys-smt2-wire _032_ 1
(define-fun |yosys_divider_n _032_| ((state |yosys_divider_s|)) Bool (= ((_ extract 0 0) (|yosys_divider#36| state)) #b1))
; yosys-smt2-wire _031_ 1
(define-fun |yosys_divider_n _031_| ((state |yosys_divider_s|)) Bool (= ((_ extract 0 0) (|yosys_divider#35| state)) #b1))
; yosys-smt2-wire _030_ 1
(define-fun |yosys_divider_n _030_| ((state |yosys_divider_s|)) Bool (= ((_ extract 0 0) (|yosys_divider#3| state)) #b1))
; yosys-smt2-wire _029_ 1
(define-fun |yosys_divider_n _029_| ((state |yosys_divider_s|)) Bool (= ((_ extract 0 0) (|yosys_divider#2| state)) #b1))
; yosys-smt2-wire _028_ 1
(define-fun |yosys_divider_n _028_| ((state |yosys_divider_s|)) Bool (= ((_ extract 0 0) (|yosys_divider#33| state)) #b1))
; yosys-smt2-wire _027_ 1
(define-fun |yosys_divider_n _027_| ((state |yosys_divider_s|)) Bool (= ((_ extract 0 0) (|yosys_divider#39| state)) #b1))
; yosys-smt2-wire _026_ 1
(define-fun |yosys_divider_n _026_| ((state |yosys_divider_s|)) Bool (= ((_ extract 0 0) (|yosys_divider#32| state)) #b1))
; yosys-smt2-wire _025_ 1
(define-fun |yosys_divider_n _025_| ((state |yosys_divider_s|)) Bool (= ((_ extract 0 0) (|yosys_divider#31| state)) #b1))
; yosys-smt2-wire _024_ 1
(define-fun |yosys_divider_n _024_| ((state |yosys_divider_s|)) Bool (= ((_ extract 0 0) (|yosys_divider#29| state)) #b1))
; yosys-smt2-wire _023_ 1
(define-fun |yosys_divider_n _023_| ((state |yosys_divider_s|)) Bool (= ((_ extract 0 0) (|yosys_divider#27| state)) #b1))
; yosys-smt2-wire _022_ 1
(define-fun |yosys_divider_n _022_| ((state |yosys_divider_s|)) Bool (= ((_ extract 0 0) (|yosys_divider#26| state)) #b1))
; yosys-smt2-wire _021_ 1
(define-fun |yosys_divider_n _021_| ((state |yosys_divider_s|)) Bool (= ((_ extract 0 0) (|yosys_divider#24| state)) #b1))
; yosys-smt2-wire _020_ 1
(define-fun |yosys_divider_n _020_| ((state |yosys_divider_s|)) Bool (= ((_ extract 0 0) (|yosys_divider#21| state)) #b1))
; yosys-smt2-wire _019_ 1
(define-fun |yosys_divider_n _019_| ((state |yosys_divider_s|)) Bool (= ((_ extract 0 0) (|yosys_divider#23| state)) #b1))
; yosys-smt2-wire _018_ 1
(define-fun |yosys_divider_n _018_| ((state |yosys_divider_s|)) Bool (= ((_ extract 0 0) (|yosys_divider#20| state)) #b1))
; yosys-smt2-wire _017_ 1
(define-fun |yosys_divider_n _017_| ((state |yosys_divider_s|)) Bool (= ((_ extract 0 0) (|yosys_divider#19| state)) #b1))
; yosys-smt2-wire _016_ 1
(define-fun |yosys_divider_n _016_| ((state |yosys_divider_s|)) Bool (= ((_ extract 0 0) (|yosys_divider#13| state)) #b1))
; yosys-smt2-wire _015_ 1
(define-fun |yosys_divider_n _015_| ((state |yosys_divider_s|)) Bool (= ((_ extract 0 0) (|yosys_divider#11| state)) #b1))
; yosys-smt2-wire _014_ 1
(define-fun |yosys_divider_n _014_| ((state |yosys_divider_s|)) Bool (= ((_ extract 0 0) (|yosys_divider#18| state)) #b1))
; yosys-smt2-wire _013_ 1
(define-fun |yosys_divider_n _013_| ((state |yosys_divider_s|)) Bool (= ((_ extract 0 0) (|yosys_divider#16| state)) #b1))
; yosys-smt2-wire _012_ 1
(define-fun |yosys_divider_n _012_| ((state |yosys_divider_s|)) Bool (= ((_ extract 0 0) (|yosys_divider#17| state)) #b1))
; yosys-smt2-wire _011_ 1
(define-fun |yosys_divider_n _011_| ((state |yosys_divider_s|)) Bool (= ((_ extract 0 0) (|yosys_divider#7| state)) #b1))
; yosys-smt2-wire _010_ 1
(define-fun |yosys_divider_n _010_| ((state |yosys_divider_s|)) Bool (= ((_ extract 0 0) (|yosys_divider#6| state)) #b1))
; yosys-smt2-wire _009_ 1
(define-fun |yosys_divider_n _009_| ((state |yosys_divider_s|)) Bool (= ((_ extract 0 0) (|yosys_divider#8| state)) #b1))
; yosys-smt2-wire _008_ 1
(define-fun |yosys_divider_n _008_| ((state |yosys_divider_s|)) Bool (= ((_ extract 0 0) (|yosys_divider#132| state)) #b1))
; yosys-smt2-wire _007_ 1
(define-fun |yosys_divider_n _007_| ((state |yosys_divider_s|)) Bool (= ((_ extract 0 0) (|yosys_divider#131| state)) #b1))
; yosys-smt2-wire _006_ 1
(define-fun |yosys_divider_n _006_| ((state |yosys_divider_s|)) Bool (= ((_ extract 0 0) (|yosys_divider#130| state)) #b1))
; yosys-smt2-wire _005_ 1
(define-fun |yosys_divider_n _005_| ((state |yosys_divider_s|)) Bool (= ((_ extract 0 0) (|yosys_divider#106| state)) #b1))
; yosys-smt2-wire _004_ 1
(define-fun |yosys_divider_n _004_| ((state |yosys_divider_s|)) Bool (= ((_ extract 0 0) (|yosys_divider#126| state)) #b1))
; yosys-smt2-wire _003_ 1
(define-fun |yosys_divider_n _003_| ((state |yosys_divider_s|)) Bool (= ((_ extract 0 0) (|yosys_divider#127| state)) #b1))
; yosys-smt2-wire _002_ 1
(define-fun |yosys_divider_n _002_| ((state |yosys_divider_s|)) Bool (= ((_ extract 0 0) (|yosys_divider#122| state)) #b1))
; yosys-smt2-wire _001_ 1
(define-fun |yosys_divider_n _001_| ((state |yosys_divider_s|)) Bool (= ((_ extract 0 0) (|yosys_divider#120| state)) #b1))
; yosys-smt2-wire _000_ 1
(define-fun |yosys_divider_n _000_| ((state |yosys_divider_s|)) Bool (= ((_ extract 0 0) (|yosys_divider#123| state)) #b1))
(define-fun |yosys_divider_a| ((state |yosys_divider_s|)) Bool true)
(define-fun |yosys_divider_u| ((state |yosys_divider_s|)) Bool true)
(define-fun |yosys_divider_i| ((state |yosys_divider_s|)) Bool true)
(define-fun |yosys_divider_h| ((state |yosys_divider_s|)) Bool true)
(define-fun |yosys_divider_t| ((state |yosys_divider_s|) (next_state |yosys_divider_s|)) Bool true) ; end of module yosys_divider
; yosys-smt2-module divider_synth
(declare-sort |divider_synth_s| 0)
(declare-fun |divider_synth_is| (|divider_synth_s|) Bool)
; yosys-smt2-cell yosys_divider divider_synth_i
; yosys-smt2-witness {"path": ["\\divider_synth_i"], "smtname": "divider_synth_i", "type": "cell"}
(declare-fun |divider_synth#0| (|divider_synth_s|) (_ BitVec 4)) ; \rem_o
(declare-fun |divider_synth#1| (|divider_synth_s|) (_ BitVec 4)) ; \quot_o
(declare-fun |divider_synth_h divider_synth_i| (|divider_synth_s|) |yosys_divider_s|)
; yosys-smt2-output rem_o 4
; yosys-smt2-wire rem_o 4
(define-fun |divider_synth_n rem_o| ((state |divider_synth_s|)) (_ BitVec 4) (|divider_synth#0| state))
; yosys-smt2-output quot_o 4
; yosys-smt2-wire quot_o 4
(define-fun |divider_synth_n quot_o| ((state |divider_synth_s|)) (_ BitVec 4) (|divider_synth#1| state))
(declare-fun |divider_synth#2| (|divider_synth_s|) (_ BitVec 4)) ; \b_i
; yosys-smt2-input b_i 4
; yosys-smt2-wire b_i 4
; yosys-smt2-witness {"offset": 0, "path": ["\\b_i"], "smtname": "b_i", "smtoffset": 0, "type": "input", "width": 4}
(define-fun |divider_synth_n b_i| ((state |divider_synth_s|)) (_ BitVec 4) (|divider_synth#2| state))
(declare-fun |divider_synth#3| (|divider_synth_s|) (_ BitVec 4)) ; \a_i
; yosys-smt2-input a_i 4
; yosys-smt2-wire a_i 4
; yosys-smt2-witness {"offset": 0, "path": ["\\a_i"], "smtname": "a_i", "smtoffset": 0, "type": "input", "width": 4}
(define-fun |divider_synth_n a_i| ((state |divider_synth_s|)) (_ BitVec 4) (|divider_synth#3| state))
(define-fun |divider_synth#4| ((state |divider_synth_s|)) (_ BitVec 4) (bvudiv (|divider_synth#3| state) (|divider_synth#2| state))) ; $div$divider.sv:66$1_Y
(define-fun |divider_synth#5| ((state |divider_synth_s|)) Bool (= (|divider_synth#0| state) (|divider_synth#4| state))) ; $eq$divider.sv:69$11_Y
; yosys-smt2-assert 0 $assert$divider.sv:68$12 divider.sv:68.45-69.43
(define-fun |divider_synth_a 0| ((state |divider_synth_s|)) Bool (or (|divider_synth#5| state) (not true))) ; $assert$divider.sv:68$12
(define-fun |divider_synth#6| ((state |divider_synth_s|)) (_ BitVec 4) (bvurem (|divider_synth#3| state) (|divider_synth#2| state))) ; $mod$divider.sv:67$4_Y
(define-fun |divider_synth#7| ((state |divider_synth_s|)) Bool (= (|divider_synth#1| state) (|divider_synth#6| state))) ; $eq$divider.sv:68$8_Y
; yosys-smt2-assert 1 $assert$divider.sv:67$9 divider.sv:67.44-68.44
(define-fun |divider_synth_a 1| ((state |divider_synth_s|)) Bool (or (|divider_synth#7| state) (not true))) ; $assert$divider.sv:67$9
(define-fun |divider_synth#8| ((state |divider_synth_s|)) Bool (= (|divider_synth#0| state) (|divider_synth#6| state))) ; $eq$divider.sv:67$5_Y
; yosys-smt2-assert 2 $assert$divider.sv:66$6 divider.sv:66.43-67.43
(define-fun |divider_synth_a 2| ((state |divider_synth_s|)) Bool (or (|divider_synth#8| state) (not true))) ; $assert$divider.sv:66$6
(define-fun |divider_synth#9| ((state |divider_synth_s|)) Bool (= (|divider_synth#1| state) (|divider_synth#4| state))) ; $eq$divider.sv:66$2_Y
; yosys-smt2-assert 3 $assert$divider.sv:44$3 divider.sv:44.34-66.42
(define-fun |divider_synth_a 3| ((state |divider_synth_s|)) Bool (or (|divider_synth#9| state) (not true))) ; $assert$divider.sv:44$3
(define-fun |divider_synth_a| ((state |divider_synth_s|)) Bool (and
  (|divider_synth_a 0| state)
  (|divider_synth_a 1| state)
  (|divider_synth_a 2| state)
  (|divider_synth_a 3| state)
  (|yosys_divider_a| (|divider_synth_h divider_synth_i| state))
))
(define-fun |divider_synth_u| ((state |divider_synth_s|)) Bool 
  (|yosys_divider_u| (|divider_synth_h divider_synth_i| state))
)
(define-fun |divider_synth_i| ((state |divider_synth_s|)) Bool 
  (|yosys_divider_i| (|divider_synth_h divider_synth_i| state))
)
(define-fun |divider_synth_h| ((state |divider_synth_s|)) Bool (and
  (= (|divider_synth_is| state) (|yosys_divider_is| (|divider_synth_h divider_synth_i| state)))
  (= (|divider_synth#0| state) (|yosys_divider_n rem_o| (|divider_synth_h divider_synth_i| state))) ; yosys_divider.rem_o
  (= (|divider_synth#1| state) (|yosys_divider_n quot_o| (|divider_synth_h divider_synth_i| state))) ; yosys_divider.quot_o
  (= (|divider_synth#2| state) (|yosys_divider_n b_i| (|divider_synth_h divider_synth_i| state))) ; yosys_divider.b_i
  (= (|divider_synth#3| state) (|yosys_divider_n a_i| (|divider_synth_h divider_synth_i| state))) ; yosys_divider.a_i
  (|yosys_divider_h| (|divider_synth_h divider_synth_i| state))
))
(define-fun |divider_synth_t| ((state |divider_synth_s|) (next_state |divider_synth_s|)) Bool 
  (|yosys_divider_t| (|divider_synth_h divider_synth_i| state) (|divider_synth_h divider_synth_i| next_state))
) ; end of module divider_synth
; yosys-smt2-topmod divider_synth
; end of yosys output
